# avogadro generated ORCA file
# C4H2O5 | Frequencies | HF/6-31G(d)
# 
! Opt Freq HF 6-31G(d) 

%maxcore 16384

%pal
   nprocs 1
end

* xyz -1 1
   O      0.287329   -1.390453   -0.642424
   O     -2.442329   -0.420229    1.156511
   O     -2.651675    0.436442   -0.943032
   O      2.863679   -0.667383   -0.192709
   O      2.112914    1.384959    0.406333
   C     -0.610683    0.722072    0.202664
   C      0.461174   -0.269281   -0.165567
   C     -2.006024    0.150084    0.111404
   C      1.931205    0.176327    0.030607
   H     -0.435608    1.061777    1.229741
   H     -0.522082    1.588586   -0.462229
*


